 VARIABLES = X,Y,Z,DU1,DU2,DU3,U1,U2,U3,S11,S22,S33,S12,S13,S23
 ZONE, T="  0.1000D+01" F=FEPOINT, I=   12 J=    2 ET=BRICK
   0.0000000000E+00   0.0000000000E+00   0.0000000000E+00   0.0000000000E+00   0.0000000000E+00   0.0000000000E+00   0.0000000000E+00   0.0000000000E+00   0.0000000000E+00   0.2000000003E+01   0.8477898481E-16   0.4719523905E-15  -0.5091677921E-16   0.4580518653E-16   0.1714161055E-15
   0.1020000000E+01   0.0000000000E+00  -0.4044582323E-18   0.2000000000E-01   0.0000000000E+00  -0.4044582323E-18   0.0000000000E+00   0.0000000000E+00   0.0000000000E+00   0.2000000003E+01   0.3292927280E-15   0.2422004048E-15   0.8075402863E-16  -0.3469156428E-15   0.1181383791E-15
   0.1020000000E+01   0.9940000000E+00   0.2034242267E-17   0.2000000000E-01  -0.6000000000E-02   0.2034242267E-17   0.0000000000E+00   0.0000000000E+00   0.0000000000E+00   0.2000000003E+01   0.3044528106E-15  -0.1658818068E-15   0.2426783166E-16   0.2398871956E-15  -0.7600084806E-16
   0.0000000000E+00   0.9940000000E+00   0.6445920729E-17   0.0000000000E+00  -0.6000000000E-02   0.6445920729E-17   0.0000000000E+00   0.0000000000E+00   0.0000000000E+00   0.2000000003E+01  -0.2621782560E-15  -0.6501537982E-15   0.7847656856E-16  -0.3184632487E-15   0.3704664693E-15
   0.0000000000E+00   0.0000000000E+00   0.9940000000E+00   0.0000000000E+00   0.0000000000E+00  -0.6000000000E-02   0.0000000000E+00   0.0000000000E+00   0.0000000000E+00   0.2000000003E+01  -0.8474355589E-16   0.1423371280E-15   0.8608748584E-18  -0.1305027868E-15  -0.1122169621E-15
   0.1020000000E+01   0.0000000000E+00   0.9940000000E+00   0.2000000000E-01   0.0000000000E+00  -0.6000000000E-02   0.0000000000E+00   0.0000000000E+00   0.0000000000E+00   0.2000000003E+01   0.2204107915E-17   0.4791191355E-15   0.6159705765E-15  -0.6109333457E-15  -0.3304008649E-16
   0.1020000000E+01   0.9940000000E+00   0.9940000000E+00   0.2000000000E-01  -0.6000000000E-02  -0.6000000000E-02   0.0000000000E+00   0.0000000000E+00   0.0000000000E+00   0.2000000003E+01  -0.3557026674E-15  -0.2620299340E-15   0.4274539694E-15   0.1616901306E-15  -0.3393204296E-15
   0.0000000000E+00   0.9940000000E+00   0.9940000000E+00   0.0000000000E+00  -0.6000000000E-02  -0.6000000000E-02   0.0000000000E+00   0.0000000000E+00   0.0000000000E+00   0.2000000003E+01   0.7340331849E-15   0.1859649209E-15  -0.1646865209E-15  -0.7988412503E-16  -0.1125684684E-17
   0.2040000000E+01   0.0000000000E+00  -0.1186272283E-16   0.4000000000E-01   0.0000000000E+00  -0.1186272283E-16   0.0000000000E+00   0.0000000000E+00   0.0000000000E+00   0.2000000003E+01   0.6758491424E-15   0.4195435682E-15   0.1284138300E-14   0.4825446600E-15   0.4467606841E-15
   0.2040000000E+01   0.9940000000E+00   0.2519923018E-19   0.4000000000E-01  -0.6000000000E-02   0.2519923018E-19   0.0000000000E+00   0.0000000000E+00   0.0000000000E+00   0.2000000003E+01   0.8231000950E-15   0.3751796636E-15   0.1196800569E-14  -0.5603268094E-15   0.7300044633E-16
   0.2040000000E+01   0.0000000000E+00   0.9940000000E+00   0.4000000000E-01   0.0000000000E+00  -0.6000000000E-02   0.0000000000E+00   0.0000000000E+00   0.0000000000E+00   0.2000000003E+01  -0.1418724150E-15   0.5568625761E-15  -0.5445838177E-15   0.2021965670E-15   0.3497119857E-15
   0.2040000000E+01   0.9940000000E+00   0.9940000000E+00   0.4000000000E-01  -0.6000000000E-02  -0.6000000000E-02   0.0000000000E+00   0.0000000000E+00   0.0000000000E+00   0.2000000003E+01  -0.1826489160E-14  -0.1319369026E-14  -0.8610575547E-15  -0.6889087756E-15   0.1297255576E-16
     1     2     3     4     5     6     7     8
     2     9    10     3     6    11    12     7
 VARIABLES = X,Y,Z,DU1,DU2,DU3,U1,U2,U3,S11,S22,S33,S12,S13,S23
 ZONE, T="  0.2000D+01" F=FEPOINT, I=   12 J=    2 ET=BRICK
   0.0000000000E+00   0.0000000000E+00   0.0000000000E+00   0.0000000000E+00   0.0000000000E+00   0.0000000000E+00   0.0000000000E+00   0.0000000000E+00   0.0000000000E+00   0.2000000003E+01  -0.4467214404E-15  -0.7752681422E-15   0.5358243609E-16  -0.2204690443E-15  -0.6456366987E-15
   0.1020000000E+01   0.0000000000E+00  -0.1271819970E-17   0.2428612866E-16   0.0000000000E+00  -0.8673617380E-18   0.2000000000E-01   0.0000000000E+00  -0.4044582323E-18   0.2000000003E+01   0.1683232765E-15  -0.1502424189E-15  -0.5058163756E-15  -0.2188322610E-15  -0.1013330981E-15
   0.1020000000E+01   0.9940000000E+00  -0.2711087766E-17   0.1387778781E-16  -0.4336808690E-17  -0.4745330033E-17   0.2000000000E-01  -0.6000000000E-02   0.2034242267E-17   0.2000000003E+01   0.2469219051E-15   0.1270079454E-15  -0.3502297660E-15  -0.1331407139E-15   0.5193331628E-16
   0.0000000000E+00   0.9940000000E+00  -0.1628632599E-16   0.0000000000E+00  -0.1040834086E-16  -0.2273224672E-16   0.0000000000E+00  -0.6000000000E-02   0.6445920729E-17   0.2000000003E+01  -0.6071116573E-15   0.3418879365E-15   0.4083276239E-15   0.7407353319E-15  -0.3970254013E-15
   0.0000000000E+00   0.0000000000E+00   0.9940000000E+00   0.0000000000E+00   0.0000000000E+00  -0.1734723476E-16   0.0000000000E+00   0.0000000000E+00  -0.6000000000E-02   0.2000000003E+01  -0.1973837558E-15  -0.9615861500E-15   0.3434676934E-17   0.9156817802E-16  -0.6329759450E-16
   0.1020000000E+01   0.0000000000E+00   0.9940000000E+00   0.2081668171E-16   0.0000000000E+00  -0.9540979118E-17   0.2000000000E-01   0.0000000000E+00  -0.6000000000E-02   0.2000000003E+01  -0.2411071211E-15  -0.7202280076E-15  -0.4071637593E-15  -0.2063536681E-15   0.1443132097E-15
   0.1020000000E+01   0.9940000000E+00   0.9940000000E+00  -0.6938893904E-17   0.1734723476E-17  -0.5204170428E-17   0.2000000000E-01  -0.6000000000E-02  -0.6000000000E-02   0.2000000003E+01   0.1705583654E-15  -0.1099107853E-15  -0.2987748059E-15  -0.3119263340E-15   0.1373591605E-15
   0.0000000000E+00   0.9940000000E+00   0.9940000000E+00   0.0000000000E+00  -0.5204170428E-17  -0.1561251128E-16   0.0000000000E+00  -0.6000000000E-02  -0.6000000000E-02   0.2000000003E+01  -0.5243073945E-15  -0.1096349320E-16   0.4831956885E-16   0.2900536770E-15   0.2693894497E-15
   0.2040000000E+01   0.0000000000E+00   0.9705163934E-17   0.4163336342E-16   0.0000000000E+00   0.2156788676E-16   0.4000000000E-01   0.0000000000E+00  -0.1186272283E-16   0.2000000003E+01  -0.1751308051E-14  -0.1234842825E-14  -0.1534646548E-15  -0.5223759663E-15  -0.5006163346E-15
   0.2040000000E+01   0.9940000000E+00  -0.4697009451E-17   0.0000000000E+00  -0.8673617380E-17  -0.4722208681E-17   0.4000000000E-01  -0.6000000000E-02   0.2519923018E-19   0.2000000003E+01  -0.3828848819E-15   0.6543162539E-15  -0.5437245304E-15   0.4319324585E-15   0.3750575520E-16
   0.2040000000E+01   0.0000000000E+00   0.9940000000E+00  -0.6938893904E-17   0.0000000000E+00   0.2081668171E-16   0.4000000000E-01   0.0000000000E+00  -0.6000000000E-02   0.2000000003E+01   0.8442289072E-15  -0.1900948470E-15   0.4228416833E-15  -0.4914689420E-15  -0.5096908770E-15
   0.2040000000E+01   0.9940000000E+00   0.9940000000E+00   0.2081668171E-16   0.1734723476E-16   0.8673617380E-18   0.4000000000E-01  -0.6000000000E-02  -0.6000000000E-02   0.2000000003E+01   0.3045319213E-14   0.2531731370E-14   0.9414226049E-15   0.3446660677E-15   0.2522863698E-15
     1     2     3     4     5     6     7     8
     2     9    10     3     6    11    12     7
 VARIABLES = X,Y,Z,DU1,DU2,DU3,U1,U2,U3,S11,S22,S33,S12,S13,S23
 ZONE, T="  0.3000D+01" F=FEPOINT, I=   12 J=    2 ET=BRICK
   0.0000000000E+00   0.0000000000E+00   0.0000000000E+00   0.0000000000E+00   0.0000000000E+00   0.0000000000E+00   0.0000000000E+00   0.0000000000E+00   0.0000000000E+00   0.2000000003E+01   0.4710954258E-15   0.5198215885E-15  -0.4947579215E-16   0.9171204367E-16   0.8598377850E-17
   0.1020000000E+01   0.0000000000E+00  -0.8489156259E-18  -0.1401725445E-16   0.0000000000E+00   0.4229043444E-18   0.2000000000E-01   0.0000000000E+00  -0.1271819970E-17   0.2000000003E+01   0.3533858568E-15   0.1262472230E-15  -0.5704799995E-16  -0.2454426252E-15  -0.5219107424E-17
   0.1020000000E+01   0.9940000000E+00  -0.7536552147E-18  -0.6683511515E-17   0.8382544089E-18   0.1957432552E-17   0.2000000000E-01  -0.6000000000E-02  -0.2711087766E-17   0.2000000003E+01  -0.2106410567E-15  -0.3954900842E-15  -0.1860269885E-15   0.1551189537E-15  -0.6158369818E-16
   0.0000000000E+00   0.9940000000E+00   0.8297068009E-18   0.0000000000E+00   0.8373216542E-17   0.1711603279E-16   0.0000000000E+00  -0.6000000000E-02  -0.1628632599E-16   0.2000000003E+01  -0.1374613052E-15  -0.2465065831E-15  -0.8829776236E-17  -0.1639511241E-15  -0.7446227920E-16
   0.0000000000E+00   0.0000000000E+00   0.9940000000E+00   0.0000000000E+00   0.0000000000E+00   0.1063591161E-16   0.0000000000E+00   0.0000000000E+00  -0.6000000000E-02   0.2000000003E+01  -0.1064250023E-15   0.2219473798E-15   0.3634662391E-16  -0.8957393176E-16   0.3703174355E-16
   0.1020000000E+01   0.0000000000E+00   0.9940000000E+00  -0.3252814742E-17   0.0000000000E+00   0.4901400312E-17   0.2000000000E-01   0.0000000000E+00  -0.6000000000E-02   0.2000000003E+01  -0.3561070101E-15  -0.2772049367E-15  -0.7310801424E-16  -0.1975647328E-15   0.6921970607E-16
   0.1020000000E+01   0.9940000000E+00   0.9940000000E+00   0.8181975422E-17  -0.2302259780E-17   0.2671007243E-17   0.2000000000E-01  -0.6000000000E-02  -0.6000000000E-02   0.2000000003E+01   0.7906665034E-16   0.2002583300E-15   0.2286690441E-17  -0.1986316012E-15  -0.1522290529E-15
   0.0000000000E+00   0.9940000000E+00   0.9940000000E+00   0.0000000000E+00  -0.9243302435E-18   0.1204279655E-16   0.0000000000E+00  -0.6000000000E-02  -0.6000000000E-02   0.2000000003E+01  -0.2153814391E-15  -0.4478049765E-16   0.5384129957E-17   0.6793206877E-16  -0.7395192432E-16
   0.2040000000E+01   0.0000000000E+00  -0.1104691249E-16  -0.1882767257E-16   0.0000000000E+00  -0.2075207643E-16   0.4000000000E-01   0.0000000000E+00   0.9705163934E-17   0.2000000003E+01   0.2354765578E-15   0.2950521864E-15  -0.7287997185E-16   0.4358679538E-15   0.1123895576E-15
   0.2040000000E+01   0.9940000000E+00  -0.8149886128E-17  -0.1053787467E-16   0.5927997144E-17  -0.3452876678E-17   0.4000000000E-01  -0.6000000000E-02  -0.4697009451E-17   0.2000000003E+01  -0.5842360752E-15  -0.6825429659E-15   0.1428969243E-16   0.1800374159E-16   0.2753160905E-17
   0.2040000000E+01   0.0000000000E+00   0.9940000000E+00   0.1312064236E-16   0.0000000000E+00  -0.2153334445E-16   0.4000000000E-01   0.0000000000E+00  -0.6000000000E-02   0.2000000003E+01  -0.4394553189E-15  -0.2139779244E-15   0.2199712872E-15  -0.6366405917E-15   0.7779969900E-16
   0.2040000000E+01   0.9940000000E+00   0.9940000000E+00   0.2209419858E-17  -0.1332634527E-16  -0.8574549747E-17   0.4000000000E-01  -0.6000000000E-02  -0.6000000000E-02   0.2000000003E+01   0.2396329017E-15   0.3072277771E-15  -0.2092308846E-15   0.7409203246E-15  -0.7406609317E-16
     1     2     3     4     5     6     7     8
     2     9    10     3     6    11    12     7
